nNurses = 135;
nHours = 33;
minHours = 4;
maxHours = 10;
maxConsec = 6;
maxPresence = 21;
demand = [33, 34, 35, 36, 38, 40, 36, 33, 31, 34, 36, 41, 37, 37, 32, 27, 25, 25, 24, 20, 16, 15, 16, 16, 20, 20, 23, 26, 25, 22, 25, 29, 26];
